\ LP format - for model browsing. Use MPS format to capture full model detail.
Minimize
  43.98229715025711 x0_0 + 42.75109260786947 x1_0 + 43.98229715025711 x1_1
   + 38.96803782516565 x2_0 + 40.34551097412752 x2_1
   + 43.98229715025711 x2_2 + 37.51535466159466 x3_0
   + 38.96803782516565 x3_1 + 42.75109260786947 x3_2
   + 43.98229715025711 x3_3 + 32.724060671131 x4_0 + 34.54187450733971 x4_1
   + 38.96803782516565 x4_2 + 40.34551097412752 x4_3
   + 43.98229715025711 x4_4 + 30.66465874661257 x5_0 + 32.724060671131 x5_1
   + 37.51535466159466 x5_2 + 38.96803782516565 x5_3
   + 42.75109260786947 x5_4 + 43.98229715025711 x5_5
   + 18.99955592153876 x6_0 + 25.44294146955793 x6_1 + 32.724060671131 x6_2
   + 34.54187450733971 x6_3 + 38.96803782516565 x6_4
   + 40.34551097412752 x6_5 + 43.98229715025711 x6_6
   + 20.04955592153876 x7_0 + 18.99955592153876 x7_1
   + 30.66465874661257 x7_2 + 32.724060671131 x7_3 + 37.51535466159466 x7_4
   + 38.96803782516565 x7_5 + 42.75109260786947 x7_6
   + 43.98229715025711 x7_7 + 23.04955592153876 x8_0
   + 21.99955592153876 x8_1 + 18.99955592153876 x8_2
   + 25.44294146955793 x8_3 + 32.724060671131 x8_4 + 34.54187450733971 x8_5
   + 38.96803782516565 x8_6 + 40.34551097412752 x8_7
   + 43.98229715025711 x8_8 + 24.09955592153876 x9_0
   + 23.04955592153876 x9_1 + 20.04955592153876 x9_2
   + 18.99955592153876 x9_3 + 30.66465874661257 x9_4 + 32.724060671131 x9_5
   + 37.51535466159466 x9_6 + 38.96803782516565 x9_7
   + 42.75109260786947 x9_8 + 43.98229715025711 x9_9
Subject To
 deg2_0: x0_0 + x1_0 + x2_0 + x3_0 + x4_0 + x5_0 + x6_0 + x7_0 + x8_0
   + x9_0 = 2
 deg2_1: x1_0 + x1_1 + x2_1 + x3_1 + x4_1 + x5_1 + x6_1 + x7_1 + x8_1
   + x9_1 = 2
 deg2_2: x2_0 + x2_1 + x2_2 + x3_2 + x4_2 + x5_2 + x6_2 + x7_2 + x8_2
   + x9_2 = 2
 deg2_3: x3_0 + x3_1 + x3_2 + x3_3 + x4_3 + x5_3 + x6_3 + x7_3 + x8_3
   + x9_3 = 2
 deg2_4: x4_0 + x4_1 + x4_2 + x4_3 + x4_4 + x5_4 + x6_4 + x7_4 + x8_4
   + x9_4 = 2
 deg2_5: x5_0 + x5_1 + x5_2 + x5_3 + x5_4 + x5_5 + x6_5 + x7_5 + x8_5
   + x9_5 = 2
 deg2_6: x6_0 + x6_1 + x6_2 + x6_3 + x6_4 + x6_5 + x6_6 + x7_6 + x8_6
   + x9_6 = 2
 deg2_7: x7_0 + x7_1 + x7_2 + x7_3 + x7_4 + x7_5 + x7_6 + x7_7 + x8_7
   + x9_7 = 2
 deg2_8: x8_0 + x8_1 + x8_2 + x8_3 + x8_4 + x8_5 + x8_6 + x8_7 + x8_8
   + x9_8 = 2
 deg2_9: x9_0 + x9_1 + x9_2 + x9_3 + x9_4 + x9_5 + x9_6 + x9_7 + x9_8
   + x9_9 = 2
Bounds
 x0_0 = 0
 x1_1 = 0
 x2_2 = 0
 x3_3 = 0
 x4_4 = 0
 x5_5 = 0
 x6_6 = 0
 x7_7 = 0
 x8_8 = 0
 x9_9 = 0
Binaries
 x0_0 x1_0 x1_1 x2_0 x2_1 x2_2 x3_0 x3_1 x3_2 x3_3 x4_0 x4_1 x4_2 x4_3 x4_4
 x5_0 x5_1 x5_2 x5_3 x5_4 x5_5 x6_0 x6_1 x6_2 x6_3 x6_4 x6_5 x6_6 x7_0 x7_1
 x7_2 x7_3 x7_4 x7_5 x7_6 x7_7 x8_0 x8_1 x8_2 x8_3 x8_4 x8_5 x8_6 x8_7 x8_8
 x9_0 x9_1 x9_2 x9_3 x9_4 x9_5 x9_6 x9_7 x9_8 x9_9
End
